 vasp.5.4.4.18Apr17-6-g9f103f2a35 (build Dec 09 2020 13:45:19) complex

 executed on             LinuxIFC date 2021.04.07  23:40:01

 INCAR:
 POTCAR:    PAW_PBE Al 04Jan2001
 POTCAR:    PAW_PBE Sb 06Sep2000
 POTCAR:    PAW_PBE Al 04Jan2001
   VRHFIN =Al: s2p1

   TITEL  = PAW_PBE Al 04Jan2001
   POMASS =   26.981; ZVAL   =    3.000    mass and valenz
   ENMAX  =  240.300; ENMIN  =  180.225 eV

   TITEL  = PAW_PBE Sb 06Sep2000
   POMASS =  121.750; ZVAL   =    5.000    mass and valenz
   ENMAX  =  172.069; ENMIN  =  129.052 eV

  PAW_PBE Al 04Jan2001                  :
  PAW_PBE Sb 06Sep2000                  :

 POSCAR: image0
  positions in direct lattice
  velocities in cartesian coordinates
 exchange correlation table for  LEXCH =       14
   RHO(1)=    0.500       N(1)  =     2000
   RHO(2)=  100.500       N(2)  =     4000

 ion  position               nearest neighbor table
   1  0.352  0.676  0.101-   5 2.66   5 2.68   5 2.68   4 2.87   3 2.89   3 2.89   3 3.34
   2  0.413  0.706  0.324-   6 2.61   6 2.61   6 2.61   4 2.79
   3  0.575  0.288  0.171-   4 2.65   4 2.70   4 2.70   5 2.83   1 2.89   1 2.89   1 3.34
   4  0.237  0.619  0.215-   3 2.65   3 2.70   3 2.70   2 2.79   1 2.87
   5  0.685  0.343  0.059-   1 2.66   1 2.68   1 2.68   3 2.83
   6  0.739  0.369  0.359-   2 2.61   2 2.61   2 2.61

IMPORTANT INFORMATION: All symmetrisations will be switched off!
NOSYMM: (Re-)initialisation of all symmetry stuff for point group C_1.

Automatic generation of k-mesh.
 generate k-points for:    7    7    2
Space group operators:
 irot       det(A)        alpha          n_x          n_y          n_z        tau_x        tau_y        tau_z
    1     1.000000     0.000001     1.000000     0.000000     0.000000     0.000000     0.000000     0.000000

 Subroutine IBZKPT returns following result:

 Found     98 irreducible k-points:

 Following reciprocal coordinates:
            Coordinates               Weight
  0.000000  0.000000  0.000000      1.000000
  0.142857 -0.000000  0.000000      1.000000
  0.285714  0.000000  0.000000      1.000000
  0.428571  0.000000  0.000000      1.000000
 -0.428571 -0.000000  0.000000      1.000000
 -0.285714  0.000000  0.000000      1.000000
 -0.142857  0.000000  0.000000      1.000000
  0.000000  0.142857  0.000000      1.000000
  0.142857  0.142857  0.000000      1.000000
  0.285714  0.142857  0.000000      1.000000
  0.428571  0.142857  0.000000      1.000000
 -0.428571  0.142857  0.000000      1.000000
 -0.285714  0.142857  0.000000      1.000000
 -0.142857  0.142857  0.000000      1.000000
 -0.000000  0.285714  0.000000      1.000000
  0.142857  0.285714  0.000000      1.000000
  0.285714  0.285714  0.000000      1.000000
  0.428571  0.285714  0.000000      1.000000
 -0.428571  0.285714  0.000000      1.000000
 -0.285714  0.285714  0.000000      1.000000
 -0.142857  0.285714  0.000000      1.000000
  0.000000  0.428571  0.000000      1.000000
  0.142857  0.428571  0.000000      1.000000
  0.285714  0.428571  0.000000      1.000000
  0.428571  0.428571  0.000000      1.000000
 -0.428571  0.428571  0.000000      1.000000
 -0.285714  0.428571  0.000000      1.000000
 -0.142857  0.428571  0.000000      1.000000
  0.000000 -0.428571  0.000000      1.000000
  0.142857 -0.428571  0.000000      1.000000
  0.285714 -0.428571  0.000000      1.000000
  0.428571 -0.428571  0.000000      1.000000
 -0.428571 -0.428571  0.000000      1.000000
 -0.285714 -0.428571  0.000000      1.000000
 -0.142857 -0.428571  0.000000      1.000000
  0.000000 -0.285714  0.000000      1.000000
  0.142857 -0.285714  0.000000      1.000000
  0.285714 -0.285714  0.000000      1.000000
  0.428571 -0.285714  0.000000      1.000000
 -0.428571 -0.285714  0.000000      1.000000
 -0.285714 -0.285714  0.000000      1.000000
 -0.142857 -0.285714  0.000000      1.000000
 -0.000000 -0.142857  0.000000      1.000000
  0.142857 -0.142857  0.000000      1.000000
  0.285714 -0.142857  0.000000      1.000000
  0.428571 -0.142857  0.000000      1.000000
 -0.428571 -0.142857  0.000000      1.000000
 -0.285714 -0.142857  0.000000      1.000000
 -0.142857 -0.142857  0.000000      1.000000
  0.000000  0.000000  0.500000      1.000000
  0.142857 -0.000000  0.500000      1.000000
  0.285714  0.000000  0.500000      1.000000
  0.428571  0.000000  0.500000      1.000000
 -0.428571 -0.000000  0.500000      1.000000
 -0.285714  0.000000  0.500000      1.000000
 -0.142857  0.000000  0.500000      1.000000
  0.000000  0.142857  0.500000      1.000000
  0.142857  0.142857  0.500000      1.000000
  0.285714  0.142857  0.500000      1.000000
  0.428571  0.142857  0.500000      1.000000
[...]
 -0.142857 -0.428571  0.500000      1.000000
  0.000000 -0.285714  0.500000      1.000000
  0.142857 -0.285714  0.500000      1.000000
  0.285714 -0.285714  0.500000      1.000000
  0.428571 -0.285714  0.500000      1.000000
 -0.428571 -0.285714  0.500000      1.000000
 -0.285714 -0.285714  0.500000      1.000000
 -0.142857 -0.285714  0.500000      1.000000
 -0.000000 -0.142857  0.500000      1.000000
  0.142857 -0.142857  0.500000      1.000000
  0.285714 -0.142857  0.500000      1.000000
  0.428571 -0.142857  0.500000      1.000000
 -0.428571 -0.142857  0.500000      1.000000
 -0.285714 -0.142857  0.500000      1.000000
 -0.142857 -0.142857  0.500000      1.000000

 Following cartesian coordinates:
            Coordinates               Weight
  0.000000  0.000000  0.000000      1.000000
  0.033832  0.019532  0.000000      1.000000
  0.067664  0.039064  0.000000      1.000000
  0.101497  0.058595  0.000000      1.000000
 -0.101497 -0.058595  0.000000      1.000000
 -0.067664 -0.039064  0.000000      1.000000
 -0.033832 -0.019532  0.000000      1.000000
  0.000276  0.038586  0.000000      1.000000
  0.034108  0.058117  0.000000      1.000000
  0.067941  0.077649  0.000000      1.000000
  0.101773  0.097181  0.000000      1.000000
 -0.101221 -0.020010  0.000000      1.000000
 -0.067388 -0.000478  0.000000      1.000000
 -0.033556  0.019054  0.000000      1.000000
  0.000552  0.077171  0.000000      1.000000
  0.034385  0.096703  0.000000      1.000000
  0.068217  0.116235  0.000000      1.000000
  0.102049  0.135767  0.000000      1.000000
 -0.100944  0.018576  0.000000      1.000000
 -0.067112  0.038108  0.000000      1.000000
 -0.033280  0.057640  0.000000      1.000000
  0.000828  0.115757  0.000000      1.000000
  0.034661  0.135289  0.000000      1.000000
  0.068493  0.154821  0.000000      1.000000
  0.102325  0.174352  0.000000      1.000000
 -0.100668  0.057162  0.000000      1.000000
 -0.066836  0.076694  0.000000      1.000000
 -0.033004  0.096225  0.000000      1.000000
 -0.000828 -0.115757  0.000000      1.000000
  0.033004 -0.096225  0.000000      1.000000
  0.066836 -0.076694  0.000000      1.000000
  0.100668 -0.057162  0.000000      1.000000
 -0.102325 -0.174352  0.000000      1.000000
 -0.068493 -0.154821  0.000000      1.000000
 -0.034661 -0.135289  0.000000      1.000000
 -0.000552 -0.077171  0.000000      1.000000
  0.033280 -0.057640  0.000000      1.000000
  0.067112 -0.038108  0.000000      1.000000
  0.100944 -0.018576  0.000000      1.000000
 -0.102049 -0.135767  0.000000      1.000000
 -0.068217 -0.116235  0.000000      1.000000
 -0.034385 -0.096703  0.000000      1.000000
 -0.000276 -0.038586  0.000000      1.000000
  0.033556 -0.019054  0.000000      1.000000
  0.067388  0.000478  0.000000      1.000000
  0.101221  0.020010  0.000000      1.000000
 -0.101773 -0.097181  0.000000      1.000000
 -0.067941 -0.077649  0.000000      1.000000
 -0.034108 -0.058117  0.000000      1.000000
  0.000000  0.000000  0.020048      1.000000
  0.033832  0.019532  0.020048      1.000000
  0.067664  0.039064  0.020048      1.000000
  0.101497  0.058595  0.020048      1.000000
 -0.101497 -0.058595  0.020048      1.000000
 -0.067664 -0.039064  0.020048      1.000000
 -0.033832 -0.019532  0.020048      1.000000
  0.000276  0.038586  0.020048      1.000000
  0.034108  0.058117  0.020048      1.000000
  0.067941  0.077649  0.020048      1.000000
  0.101773  0.097181  0.020048      1.000000
[...]
 -0.034661 -0.135289  0.020048      1.000000
 -0.000552 -0.077171  0.020048      1.000000
  0.033280 -0.057640  0.020048      1.000000
  0.067112 -0.038108  0.020048      1.000000
  0.100944 -0.018576  0.020048      1.000000
 -0.102049 -0.135767  0.020048      1.000000
 -0.068217 -0.116235  0.020048      1.000000
 -0.034385 -0.096703  0.020048      1.000000
 -0.000276 -0.038586  0.020048      1.000000
  0.033556 -0.019054  0.020048      1.000000
  0.067388  0.000478  0.020048      1.000000
  0.101221  0.020010  0.020048      1.000000
 -0.101773 -0.097181  0.020048      1.000000
 -0.067941 -0.077649  0.020048      1.000000
 -0.034108 -0.058117  0.020048      1.000000

 SYSTEM =  unknown system
 POSCAR =  image0

 Startparameter for this run:
   NWRITE =      2    write-flag & timer
   PREC   = accura    normal or accurate (medium, high low for compatibility)
   ISTART =      0    job   : 0-new  1-cont  2-samecut
   ICHARG =      2    charge: 1-file 2-atom 10-const
   ISPIN  =      2    spin polarized calculation?
   LNONCOLLINEAR =      F non collinear calculations
   LSORBIT =      F    spin-orbit coupling
   INIWAV =      1    electr: 0-lowe 1-rand  2-diag
   LASPH  =      F    aspherical Exc in radial PAW
   METAGGA=      F    non-selfconsistent MetaGGA calc.

 Electronic Relaxation 1
   ENCUT  =  700.0 eV  51.45 Ry    7.17 a.u.   9.15  9.26 53.80*2*pi/ulx,y,z
   ENINI  =  700.0     initial cutoff
   ENAUG  =  380.5 eV  augmentation charge cutoff
   NELM   =    100;   NELMIN=  4; NELMDL= -5     # of ELM steps
   EDIFF  = 0.1E-06   stopping-criterion for ELM
   LREAL  =      F    real-space projection
   NLSPLINE    = F    spline interpolate recip. space projectors
   LCOMPAT=      F    compatible to vasp.4.4
   GGA_COMPAT  = T    GGA compatible to vasp.4.4-vasp.4.6
   LMAXPAW     = -100 max onsite density
   LMAXMIX     =    2 max onsite mixed and CHGCAR
   VOSKOWN=      0    Vosko Wilk Nusair interpolation
   ROPT   =    0.00000   0.00000
 Ionic relaxation
   EDIFFG = -.1E-02   stopping-criterion for IOM
   NSW    =    100    number of steps for IOM
   NBLOCK =      1;   KBLOCK =    100    inner block; outer block
   IBRION =      2    ionic relax: 0-MD 1-quasi-New 2-CG
   NFREE  =      1    steps in history (QN), initial steepest desc. (CG)
   ISIF   =      3    stress and relaxation
   IWAVPR =     11    prediction:  0-non 1-charg 2-wave 3-comb
   ISYM   =     -1    0-nonsym 1-usesym 2-fastsym
   LCORR  =      T    Harris-Foulkes like correction to forces

   POTIM  = 0.2000    time-step for ionic-motion
   TEIN   =    0.0    initial temperature
   TEBEG  =    0.0;   TEEND  =   0.0 temperature during run
   SMASS  =  -3.00    Nose mass-parameter (am)
   estimated Nose-frequenzy (Omega)   =  0.10E-29 period in steps =****** mass=  -0.411E-27a.u.
   SCALEE = 1.0000    scale energy and forces
   NPACO  =    256;   APACO  = 16.0  distance and # of slots for P.C.
   PSTRESS=    0.0 pullay stress

  Mass of Ions in am
   POMASS =  26.98121.75
  Ionic Valenz
   ZVAL   =   3.00  5.00
  Atomic Wigner-Seitz radii
  virtual crystal weights
[...]
   0.28571429 -0.14285714  0.50000000       0.010
   0.42857143 -0.14285714  0.50000000       0.010
  -0.42857143 -0.14285714  0.50000000       0.010
  -0.28571429 -0.14285714  0.50000000       0.010
  -0.14285714 -0.14285714  0.50000000       0.010

 position of ions in fractional coordinates (direct lattice)
   0.35170961  0.67615767  0.10120431
   0.41267842  0.70562115  0.32393989
   0.57494199  0.28777146  0.17140490
   0.23683484  0.61873220  0.21492259
   0.68474040  0.34267459  0.05891482
   0.73923765  0.36889866  0.35883085

 position of ions in cartesian coordinates  (Angst):
   0.04004574  2.50307224  2.52400498
   0.23531900  2.61075816  8.07896348
   1.82013874  1.05239809  4.27478660
  -0.32377673  2.29306808  5.36010484
   2.16785088  1.25317899  1.46931780
   2.34263721  1.34901820  8.94913339

 k-point  1 :   0.0000 0.0000 0.0000  plane waves:   16397
 k-point  2 :   0.1429-0.0000 0.0000  plane waves:   16436
 k-point  3 :   0.2857 0.0000 0.0000  plane waves:   16486
 k-point  4 :   0.4286 0.0000 0.0000  plane waves:   16496
 k-point  5 :  -0.4286-0.0000 0.0000  plane waves:   16496
 k-point  6 :  -0.2857 0.0000 0.0000  plane waves:   16486
 k-point  7 :  -0.1429 0.0000 0.0000  plane waves:   16436
 k-point  8 :   0.0000 0.1429 0.0000  plane waves:   16434
 k-point  9 :   0.1429 0.1429 0.0000  plane waves:   16446
 k-point 10 :   0.2857 0.1429 0.0000  plane waves:   16501
 k-point 11 :   0.4286 0.1429 0.0000  plane waves:   16518
 k-point 12 :  -0.4286 0.1429 0.0000  plane waves:   16501
 k-point 13 :  -0.2857 0.1429 0.0000  plane waves:   16448
 k-point 14 :  -0.1429 0.1429 0.0000  plane waves:   16434
 k-point 15 :  -0.0000 0.2857 0.0000  plane waves:   16477
 k-point 16 :   0.1429 0.2857 0.0000  plane waves:   16464
 k-point 17 :   0.2857 0.2857 0.0000  plane waves:   16460
 k-point 18 :   0.4286 0.2857 0.0000  plane waves:   16460
 k-point 19 :  -0.4286 0.2857 0.0000  plane waves:   16466
 k-point 20 :  -0.2857 0.2857 0.0000  plane waves:   16477
 k-point 21 :  -0.1429 0.2857 0.0000  plane waves:   16437
 k-point 22 :   0.0000 0.4286 0.0000  plane waves:   16470
 k-point 23 :   0.1429 0.4286 0.0000  plane waves:   16454
 k-point 24 :   0.2857 0.4286 0.0000  plane waves:   16459
 k-point 25 :   0.4286 0.4286 0.0000  plane waves:   16454
 k-point 26 :  -0.4286 0.4286 0.0000  plane waves:   16470
 k-point 27 :  -0.2857 0.4286 0.0000  plane waves:   16464
 k-point 28 :  -0.1429 0.4286 0.0000  plane waves:   16464
 k-point 29 :   0.0000-0.4286 0.0000  plane waves:   16470
 k-point 30 :   0.1429-0.4286 0.0000  plane waves:   16464
 k-point 31 :   0.2857-0.4286 0.0000  plane waves:   16464
 k-point 32 :   0.4286-0.4286 0.0000  plane waves:   16470
 k-point 33 :  -0.4286-0.4286 0.0000  plane waves:   16454
 k-point 34 :  -0.2857-0.4286 0.0000  plane waves:   16459
 k-point 35 :  -0.1429-0.4286 0.0000  plane waves:   16454
 k-point 36 :   0.0000-0.2857 0.0000  plane waves:   16477
 k-point 37 :   0.1429-0.2857 0.0000  plane waves:   16437
 k-point 38 :   0.2857-0.2857 0.0000  plane waves:   16477
 k-point 39 :   0.4286-0.2857 0.0000  plane waves:   16466
 k-point 40 :  -0.4286-0.2857 0.0000  plane waves:   16460
 k-point 41 :  -0.2857-0.2857 0.0000  plane waves:   16460
 k-point 42 :  -0.1429-0.2857 0.0000  plane waves:   16464
 k-point 43 :  -0.0000-0.1429 0.0000  plane waves:   16434
 k-point 44 :   0.1429-0.1429 0.0000  plane waves:   16434
 k-point 45 :   0.2857-0.1429 0.0000  plane waves:   16448
 k-point 46 :   0.4286-0.1429 0.0000  plane waves:   16501
 k-point 47 :  -0.4286-0.1429 0.0000  plane waves:   16518
 k-point 48 :  -0.2857-0.1429 0.0000  plane waves:   16501
 k-point 49 :  -0.1429-0.1429 0.0000  plane waves:   16446
 k-point 50 :   0.0000 0.0000 0.5000  plane waves:   16416
 k-point 51 :   0.1429-0.0000 0.5000  plane waves:   16428
 k-point 52 :   0.2857 0.0000 0.5000  plane waves:   16468
 k-point 53 :   0.4286 0.0000 0.5000  plane waves:   16520
 k-point 54 :  -0.4286-0.0000 0.5000  plane waves:   16520
 k-point 55 :  -0.2857 0.0000 0.5000  plane waves:   16468
 k-point 56 :  -0.1429 0.0000 0.5000  plane waves:   16428
 k-point 57 :   0.0000 0.1429 0.5000  plane waves:   16422
 k-point 58 :   0.1429 0.1429 0.5000  plane waves:   16444
 k-point 59 :   0.2857 0.1429 0.5000  plane waves:   16486
 k-point 60 :   0.4286 0.1429 0.5000  plane waves:   16526
[...]
 k-point 84 :  -0.1429-0.4286 0.5000  plane waves:   16454
 k-point 85 :   0.0000-0.2857 0.5000  plane waves:   16476
 k-point 86 :   0.1429-0.2857 0.5000  plane waves:   16424
 k-point 87 :   0.2857-0.2857 0.5000  plane waves:   16474
 k-point 88 :   0.4286-0.2857 0.5000  plane waves:   16462
 k-point 89 :  -0.4286-0.2857 0.5000  plane waves:   16464
 k-point 90 :  -0.2857-0.2857 0.5000  plane waves:   16464
 k-point 91 :  -0.1429-0.2857 0.5000  plane waves:   16460
 k-point 92 :  -0.0000-0.1429 0.5000  plane waves:   16422
 k-point 93 :   0.1429-0.1429 0.5000  plane waves:   16422
 k-point 94 :   0.2857-0.1429 0.5000  plane waves:   16444
 k-point 95 :   0.4286-0.1429 0.5000  plane waves:   16488
 k-point 96 :  -0.4286-0.1429 0.5000  plane waves:   16526
 k-point 97 :  -0.2857-0.1429 0.5000  plane waves:   16486
 k-point 98 :  -0.1429-0.1429 0.5000  plane waves:   16444

 maximum and minimum number of plane-waves per node :      2090     2026

 maximum number of plane-waves:     16526
 maximum index in each direction:
   IXMAX=    9   IYMAX=    9   IZMAX=   53
   IXMIN=   -9   IYMIN=   -9   IZMIN=  -54

 parallel 3D FFT for wavefunctions:
    minimum data exchange during FFTs selected (reduces bandwidth)
 parallel 3D FFT for charge:
    minimum data exchange during FFTs selected (reduces bandwidth)

 Broyden mixing: mesh for mixing (old mesh)
   NGX = 19   NGY = 19   NGZ =107
  (NGX  = 80   NGY  = 80   NGZ  =432)
  gives a total of  38627 points

 initial charge density was supplied:
 charge density of overlapping atoms calculated
 number of electron      24.0000000 magnetization       6.0000000
 keeping initial charge density in first step

 Maximum index for augmentation-charges         1814 (set IRDMAX)

 First call to EWALD:  gamma=   0.242
 Maximum number of real-space cells 5x 5x 1
 Maximum number of reciprocal cells 2x 2x 8

--------------------------------------- Iteration      1(   1)  ---------------------------------------

 eigenvalue-minimisations  :  9408
 total energy-change (2. order) : 0.1224744E+03  (-0.7833880E+03)
 number of electron      24.0000000 magnetization       6.0000000
 augmentation part       24.0000000 magnetization       6.0000000

 DIPCOR: dipole corrections for dipol
 direction  3 min pos   303,
 dipolmoment           0.000000      0.000000      0.000008 electrons x Angstroem
 Tr[quadrupol]       -76.446568

 energy correction for charged system         0.000000 eV
 dipol+quadrupol energy correction           -0.000000 eV
 added-field ion interaction         -0.000017 eV  (added to PSCEN)

 Free energy of the ion-electron system (eV)
  alpha Z        PSCENC =        -2.39807722
  Ewald energy   TEWEN  =      1911.23135350
  -Hartree energ DENC   =     -2443.49004923
  -exchange      EXHF   =         0.00000000
  -V(xc)+E(xc)   XCENC  =      -211.99003796
  PAW double counting   =       683.11760500     -429.60803766
  entropy T*S    EENTRO =        -0.00430823
  eigenvalues    EBANDS =         6.15559725
  atomic energy  EATOM  =       609.46040274
  Solvation  Ediel_sol  =         0.00000000
  free energy    TOTEN  =       122.47444818 eV

  energy without entropy =      122.47875642  energy(sigma->0) =      122.47660230

[...]

 eigenvalue-minimisations  : 12728
 total energy-change (2. order) :-0.1350975E+03  (-0.1293237E+03)
 number of electron      24.0000000 magnetization       6.0000000
 augmentation part       24.0000000 magnetization       6.0000000

[...]

 Broyden mixing:
  rms(total) = 0.77012E+00    rms(broyden)= 0.77012E+00
  rms(prec ) = 0.79273E+00
  weight for this iteration     100.00

[...]

 eigenvalues of (default mixing * dielectric matrix)
  average eigenvalue GAMMA=   0.9207
  0.9207

[...]

 eigenvalue-minimisations  : 11984
 total energy-change (2. order) : 0.1262762E+01  (-0.2900063E+00)
 number of electron      24.0000000 magnetization       3.6169311
 augmentation part       -2.5184395 magnetization       3.5815479

[...]

 Broyden mixing:
  rms(total) = 0.44939E-05    rms(broyden)= 0.44939E-05
  rms(prec ) = 0.57546E-05
  weight for this iteration     100.00

 eigenvalues of (default mixing * dielectric matrix)
  average eigenvalue GAMMA=   2.2640
 10.5575 10.5575  7.1851  4.6228  3.4965  3.4965  2.3172  2.3172  2.2297  1.6988
  1.3016  1.3016  1.0980  1.0179  1.0179  0.4517  0.8479  0.8479  0.8924  0.8924
  0.7432  0.7432  0.5651  0.6852  0.6531  0.6095  0.6218  0.6218

[...]

--------------------------------------- Iteration      1(  34)  ---------------------------------------

 eigenvalue-minimisations  :  9392
 total energy-change (2. order) :-0.8782888E-07  (-0.3016324E-09)
 number of electron      24.0000000 magnetization       0.0000035
 augmentation part       -2.4769691 magnetization       0.0000035

 DIPCOR: dipole corrections for dipol
 direction  3 min pos   303,
 dipolmoment           0.000000      0.000000      0.108998 electrons x Angstroem
 Tr[quadrupol]       -78.175854

 energy correction for charged system         0.000000 eV
 dipol+quadrupol energy correction           -0.002746 eV
 added-field ion interaction         -0.220140 eV  (added to PSCEN)

 Free energy of the ion-electron system (eV)
  alpha Z        PSCENC =        -2.62094647
  Ewald energy   TEWEN  =      1911.23135350
  -Hartree energ DENC   =     -2462.68495023
  -exchange      EXHF   =         0.00000000
  -V(xc)+E(xc)   XCENC  =      -211.29659404
  PAW double counting   =      1541.83568447    -1288.73718197
  entropy T*S    EENTRO =        -0.00005897
  eigenvalues    EBANDS =      -122.45322485
  atomic energy  EATOM  =       609.46040274
  Solvation  Ediel_sol  =         0.00000000
  free energy    TOTEN  =       -25.26551582 eV

  energy without entropy =      -25.26545686  energy(sigma->0) =      -25.26548634

 average (electrostatic) potential at core
  the test charge radii are     1.0406  1.1712
  (the norm of the test charge is              1.0000)
       1 -81.3026       2 -80.4120       3 -81.3623       4 -92.7730       5 -92.6567
       6 -91.6495

 E-fermi :  -0.5137     XC(G=0):  -4.2633     alpha+bet : -4.6334

 spin component 1

 k-point     1 :       0.0000    0.0000    0.0000
  band No.  band energies     occupation
      1     -12.0002      1.00000
      2     -10.8987      1.00000
      3     -10.0844      1.00000
      4      -6.1043      1.00000
      5      -3.5088      1.00000
      6      -2.0834      1.00000
      7      -1.8880      1.00000
      8      -1.3138      1.00000
      9      -1.1252      1.00000
     10      -1.0354      1.00000
     11      -0.4249      0.00601
     12      -0.3989      0.00058
     13      -0.0255      0.00000
     14       1.2163      0.00000
     15       1.5859      0.00000
     16       1.7812      0.00000
     17       2.2323      0.00000
     18       2.2378      0.00000
     19       2.4289      0.00000
     20       3.2204      0.00000
     21       3.5534      0.00000
     22       3.6761      0.00000
     23       3.8074      0.00000
     24       4.2511      0.00000

[...]

 spin component 2

[...]

 k-point    98 :      -0.1429   -0.1429    0.5000
  band No.  band energies     occupation
      1     -11.4747      1.00000
      2     -10.4660      1.00000
      3      -9.6020      1.00000
      4      -5.8936      1.00000
      5      -4.8435      1.00000
      6      -3.6390      1.00000
      7      -3.4237      1.00000
      8      -3.0378      1.00000
      9      -2.3587      1.00000
     10      -1.9434      1.00000
     11      -1.3648      1.00000
     12      -1.0740      1.00000
     13       1.0917      0.00000
     14       1.4788      0.00000
     15       1.6454      0.00000
     16       2.1643      0.00000
     17       2.2884      0.00000
     18       3.1132      0.00000
     19       3.4708      0.00000
     20       3.6676      0.00000
     21       3.9443      0.00000
     22       4.1706      0.00000
     23       4.7274      0.00000
     24       4.9668      0.00000

 soft charge-density along one line, spin component           1
         0         1         2         3         4         5         6         7         8         9
 total charge-density along one line

 soft charge-density along one line, spin component           2
         0         1         2         3         4         5         6         7         8         9
 total charge-density along one line

------------------------ aborting loop because EDIFF is reached ----------------------------------------

         DFTD3 V3.0 Rev 1
 IVDW         = 12
 DF pbesol
 parameters
 VDW_S6       =    1.0000
 VDW_S8       =    2.9491
 VDW_A1       =    0.4466
 VDW_A2       =    6.1742
 k1-k3        =   16.0000    1.3333   -4.0000
 VDW_RADIUS   =   50.2022 A
 VDW_CNRADIUS =   21.1671 A
 Edisp (eV)   -1.49820

 E6    (eV) :    -0.4536
 E8    (eV) :    -1.0446
 % E8        : 69.73

  FORCE on cell =-STRESS in cart. coord.  units (eV):
  Direction    XX          YY          ZZ          XY          YZ          ZX
  Alpha Z    -2.39806    -2.39806    -2.39806
  Ewald    2344.11229  2344.30786 -2777.18907    -0.18607     0.38603     0.75616
  Hartree  2435.20917  2434.30407 -2406.82754     0.78427    -0.27232    -0.45585
  E(xc)     -87.01287   -86.99116   -86.40718    -0.01842    -0.10082    -0.17520
  Local   -5093.47494 -5092.09609  4872.97570    -1.17944    -0.84254    -1.55488
  n-local   314.10748   313.76758   306.35839     0.29094     1.09132     1.89554
  augment   -54.10663   -54.01903   -52.90253    -0.07563    -0.23141    -0.40060
  Kinetic   145.04808   144.61314   147.32115     0.38050    -0.03211    -0.07494
  Fock        0.00000     0.00000     0.00000     0.00000     0.00000     0.00000
  vdW        -1.48345    -1.48880    -0.94974     0.00465     0.00380     0.00653
  Total       0.00106    -0.00048    -0.01889     0.00080     0.00195    -0.00324
  in kB       0.00435    -0.00195    -0.07731     0.00327     0.00796    -0.01325

 VOLUME and BASIS-vectors are now :
  energy-cutoff  :      700.00
  volume of cell :      391.50
      direct lattice vectors                 reciprocal lattice vectors
     4.240033040 -0.030346118  0.000000000     0.236825747  0.136722283  0.000000000
    -2.146266620  3.717690946  0.000000000     0.001933120  0.270100179  0.000000000
     0.000000000  0.000000000 24.939699173     0.000000000  0.000000000  0.040096715

  length of vectors
     4.240141633  4.292748115 24.939699173     0.273458255  0.270107097  0.040096715

 FORCES acting on ions
    electron-ion (+dipol)            ewald-force                    non-local-force                 convergence-correction
   -.114E+01 -.665E+00 0.128E+03   0.914E+00 0.531E+00 -.129E+03   0.232E+00 0.135E+00 0.102E+01   0.234E-05 0.135E-05 0.137E-04
   -.252E+01 -.144E+01 -.130E+03   0.236E+01 0.135E+01 0.133E+03   0.167E+00 0.966E-01 -.242E+01   0.113E-07 0.137E-07 -.263E-04
   0.141E+01 0.817E+00 0.327E+02   -.125E+01 -.724E+00 -.317E+02   -.161E+00 -.933E-01 -.101E+01   -.141E-05 -.818E-06 0.293E-04
   0.160E+01 0.905E+00 -.433E+02   -.174E+01 -.982E+00 0.468E+02   0.137E+00 0.758E-01 -.354E+01   0.173E-05 0.992E-06 0.292E-04
   -.742E+00 -.426E+00 0.312E+03   0.454E+00 0.260E+00 -.318E+03   0.289E+00 0.166E+00 0.566E+01   -.377E-05 -.218E-05 -.318E-04
   0.877E+00 0.511E+00 -.294E+03   -.738E+00 -.430E+00 0.300E+03   -.140E+00 -.815E-01 -.514E+01   -.171E-06 -.131E-06 -.485E-04
   -.524E+00 -.299E+00 0.544E+01   -.111E-15 -.361E-14 -.568E-13   0.524E+00 0.299E+00 -.544E+01   -.128E-05 -.773E-06 -.345E-04

 POSITION                                       TOTAL-FORCE (eV/Angst)
      0.04005      2.50307      2.52400         0.000015     -0.000151     -0.000112
      0.23532      2.61076      8.07896        -0.000602     -0.000110      0.000157
      1.82014      1.05240      4.27479         0.000120     -0.000108      0.000184
     -0.32378      2.29307      5.36010         0.000257      0.000136     -0.000292
      2.16785      1.25318      1.46932         0.000217     -0.000165      0.000901
      2.34264      1.34902      8.94913        -0.000007      0.000397     -0.000837
    total drift:                               -0.000059     -0.000032      0.000012

  FREE ENERGIE OF THE ION-ELECTRON SYSTEM (eV)
  free  energy   TOTEN  =       -26.76371095 eV

  energy  without entropy=      -26.76365199  energy(sigma->0) =      -26.76368147

 reached required accuracy - stopping structural energy minimisation